title "INCHIKEY"
start INCHIKEY

memory global 1600 mb heap 100 mb stack 600 mb

permanent_dir PATH
#scratch_dir /scratch

echo

charge CHARGE
geometry noautoz noautosym
 load PATH/INCHIKEY.xyz
end

basis "small"
* library 6-31G*
end

set "ao basis" "small"

driver
 maxiter 500
 xyz INCHIKEY_geom
end

set lindep:n_dep 0

dft
  mult multiplicity
  maxiter 200
  xc b3lyp
  mulliken
  print "mulliken ao"
  print "final vectors analysis"
end

task dft optimize ignore
task dft freq

basis "large" spherical
* library 6-311++G**
end

set "ao basis" "large"

dft
  mult multiplicity
  maxiter 250
  xc scan
  grid xfine
  CONVERGENCE energy 1e-6
  CONVERGENCE density 5e-4
  CONVERGENCE gradient 1e-4
  mulliken
  print "mulliken ao"
  print "final vectors analysis"
  vectors input atomic output large2.movecs
  smear
 convergence ncydp 0 damp 45 dampon 1d99 dampoff 1d-4
end

task dft energy ignore
cosmo
 do_cosmo_smd true
 dielec 80.4
 lineq  0
end

task dft energy ignore
set dft:converged t
property
 dipole
end

task dft property
